Route #1: 27 52 16 35 48 32 36 3
Route #2: 13 49 33 11 55 20 31 30 34 54 2
Route #3: 43 23 50 22 38 9 12 5 40
Route #4: 46 28 44 51 14 17 8 10 18
Route #5: 19 7 15 29 41 45 24 6 53
Route #6: 47 21 26 4 39 37 42
Route #7: 1 25
Cost 713